c generated by sgen
p cnf 61 132
-2 -3 -4 0
-1 -3 -4 0
-1 -2 -4 0
-1 -2 -3 0
-6 -7 -8 0
-5 -7 -8 0
-5 -6 -8 0
-5 -6 -7 0
-10 -11 -12 0
-9 -11 -12 0
-9 -10 -12 0
-9 -10 -11 0
-14 -15 -16 0
-13 -15 -16 0
-13 -14 -16 0
-13 -14 -15 0
-18 -19 -20 0
-17 -19 -20 0
-17 -18 -20 0
-17 -18 -19 0
-22 -23 -24 0
-21 -23 -24 0
-21 -22 -24 0
-21 -22 -23 0
-26 -27 -28 0
-25 -27 -28 0
-25 -26 -28 0
-25 -26 -27 0
-30 -31 -32 0
-29 -31 -32 0
-29 -30 -32 0
-29 -30 -31 0
-34 -35 -36 0
-33 -35 -36 0
-33 -34 -36 0
-33 -34 -35 0
-38 -39 -40 0
-37 -39 -40 0
-37 -38 -40 0
-37 -38 -39 0
-42 -43 -44 0
-41 -43 -44 0
-41 -42 -44 0
-41 -42 -43 0
-46 -47 -48 0
-45 -47 -48 0
-45 -46 -48 0
-45 -46 -47 0
-50 -51 -52 0
-49 -51 -52 0
-49 -50 -52 0
-49 -50 -51 0
-54 -55 -56 0
-53 -55 -56 0
-53 -54 -56 0
-53 -54 -55 0
-57 -58 -59 0
-57 -58 -60 0
-57 -58 -61 0
-57 -59 -60 0
-57 -59 -61 0
-57 -60 -61 0
-58 -59 -60 0
-58 -59 -61 0
-58 -60 -61 0
-59 -60 -61 0
40 33 51 0
19 33 51 0
19 40 51 0
19 40 33 0
38 9 4 0
48 9 4 0
48 38 4 0
48 38 9 0
46 59 52 0
43 59 52 0
43 46 52 0
43 46 59 0
13 23 50 0
8 23 50 0
8 13 50 0
8 13 23 0
10 18 6 0
25 18 6 0
25 10 6 0
25 10 18 0
39 22 60 0
28 22 60 0
28 39 60 0
28 39 22 0
45 26 36 0
14 26 36 0
14 45 36 0
14 45 26 0
55 49 27 0
31 49 27 0
31 55 27 0
31 55 49 0
58 17 3 0
16 17 3 0
16 58 3 0
16 58 17 0
7 56 61 0
37 56 61 0
37 7 61 0
37 7 56 0
1 30 5 0
44 30 5 0
44 1 5 0
44 1 30 0
35 24 2 0
54 24 2 0
54 35 2 0
54 35 24 0
11 57 29 0
34 57 29 0
34 11 29 0
34 11 57 0
42 53 15 0
12 53 15 0
12 42 15 0
12 42 53 0
21 47 20 0
21 47 41 0
21 47 32 0
21 20 41 0
21 20 32 0
21 41 32 0
47 20 41 0
47 20 32 0
47 41 32 0
20 41 32 0
